2
150 150 
49
21 89 30
21 95 72
22 92 4
23 88 88
23 91 54
23 95 64
24 91 90
26 88 26
26 90 94
28 83 28
28 85 72
35 84 49
36 78 54
38 72 19
38 78 28
40 75 61
40 77 84
42 75 23
45 70 67
47 68 53
48 66 54
48 71 16
49 68 9
49 69 54
52 65 77
53 60 80
53 63 68
54 64 39
56 59 25
56 62 74
57 55 14
57 60 53
65 46 35
66 44 100
66 49 39
67 52 82
68 43 62
68 49 80
73 39 94
77 37 4
77 38 100
78 37 93
82 32 95
85 26 8
89 28 7
89 29 90
91 25 84
97 19 10
99 17 13
